
Gurobi 6.5.2 (linux64) logging started Mon Aug 29 10:57:55 2016

Optimize a model with 101 rows, 908 columns and 1897 nonzeros
Coefficient statistics:
  Matrix range    [1e+00, 2e+00]
  Objective range [4e+00, 1e+02]
  Bounds range    [1e+00, 1e+00]
  RHS range       [1e+00, 1e+00]
Found heuristic solution: objective 3149
Presolve removed 37 rows and 14 columns
Presolve time: 0.00s
Presolved: 64 rows, 894 columns, 1791 nonzeros
Variable types: 0 continuous, 894 integer (894 binary)

Root relaxation: objective 6.935000e+02, 76 iterations, 0.00 seconds

    Nodes    |    Current Node    |     Objective Bounds      |     Work
 Expl Unexpl |  Obj  Depth IntInf | Incumbent    BestBd   Gap | It/Node Time

     0     0  693.50000    0   12 3149.00000  693.50000  78.0%     -    0s
H    0     0                     816.0000000  693.50000  15.0%     -    0s
H    0     0                     758.0000000  693.50000  8.51%     -    0s
H    0     0                     701.0000000  693.50000  1.07%     -    0s
     0     0  697.00000    0   22  701.00000  697.00000  0.57%     -    0s
     0     0  699.50000    0    6  701.00000  699.50000  0.21%     -    0s

Explored 0 nodes (141 simplex iterations) in 0.02 seconds
Thread count was 8 (of 8 available processors)

Optimal solution found (tolerance 1.00e-04)
Best objective 7.010000000000e+02, best bound 7.010000000000e+02, gap 0.0%
